
Gurobi 7.5.1 (linux64) logging started Fri Oct 20 13:07:31 2017

Academic license - for non-commercial use only
Set parameter LogToConsole to value 0

Gurobi Optimizer version 7.5.1 build v7.5.1rc0 (linux64)
Copyright (c) 2017, Gurobi Optimization, Inc.

Read LP format model from file problem.lp
Reading time = 0.00 seconds
: 22 rows, 11 columns, 48 nonzeros
Optimize a model with 22 rows, 11 columns and 48 nonzeros
Coefficient statistics:
  Matrix range     [1e+00, 3e+02]
  Objective range  [1e+00, 1e+00]
  Bounds range     [0e+00, 0e+00]
  RHS range        [1e+00, 3e+02]
Presolve removed 22 rows and 11 columns
Presolve time: 0.00s
Presolve: All rows and columns removed
Iteration    Objective       Primal Inf.    Dual Inf.      Time
       0    0.0000000e+00   0.000000e+00   0.000000e+00      0s

Solved in 0 iterations and 0.00 seconds
Optimal objective  0.000000000e+00

Wrote result file 'max.sol'


Gurobi 7.5.1 (linux64) logging started Fri Oct 20 13:07:31 2017

Academic license - for non-commercial use only
Set parameter LogToConsole to value 0

Gurobi Optimizer version 7.5.1 build v7.5.1rc0 (linux64)
Copyright (c) 2017, Gurobi Optimization, Inc.

Read LP format model from file problem.lp
Reading time = 0.00 seconds
: 22 rows, 11 columns, 48 nonzeros
Optimize a model with 22 rows, 11 columns and 48 nonzeros
Coefficient statistics:
  Matrix range     [1e+00, 3e+02]
  Objective range  [1e+00, 1e+00]
  Bounds range     [0e+00, 0e+00]
  RHS range        [1e+00, 3e+02]
Presolve removed 22 rows and 11 columns
Presolve time: 0.00s
Presolve: All rows and columns removed
Iteration    Objective       Primal Inf.    Dual Inf.      Time
       0    0.0000000e+00   0.000000e+00   0.000000e+00      0s

Solved in 0 iterations and 0.00 seconds
Optimal objective  0.000000000e+00

Wrote result file 'max.sol'


Gurobi 7.5.1 (linux64) logging started Fri Oct 20 13:07:31 2017

Academic license - for non-commercial use only
Set parameter LogToConsole to value 0

Gurobi Optimizer version 7.5.1 build v7.5.1rc0 (linux64)
Copyright (c) 2017, Gurobi Optimization, Inc.

Read LP format model from file problem.lp
Reading time = 0.00 seconds
: 22 rows, 11 columns, 48 nonzeros
Optimize a model with 22 rows, 11 columns and 48 nonzeros
Coefficient statistics:
  Matrix range     [1e+00, 3e+02]
  Objective range  [1e+00, 1e+00]
  Bounds range     [0e+00, 0e+00]
  RHS range        [1e+00, 3e+02]
Presolve removed 22 rows and 11 columns
Presolve time: 0.00s
Presolve: All rows and columns removed
Iteration    Objective       Primal Inf.    Dual Inf.      Time
       0    0.0000000e+00   0.000000e+00   0.000000e+00      0s

Solved in 0 iterations and 0.00 seconds
Optimal objective  0.000000000e+00

Wrote result file 'max.sol'


Gurobi 7.5.1 (linux64) logging started Fri Oct 20 13:07:31 2017

Academic license - for non-commercial use only
Set parameter LogToConsole to value 0

Gurobi Optimizer version 7.5.1 build v7.5.1rc0 (linux64)
Copyright (c) 2017, Gurobi Optimization, Inc.

Read LP format model from file problem.lp
Reading time = 0.00 seconds
: 22 rows, 11 columns, 48 nonzeros
Optimize a model with 22 rows, 11 columns and 48 nonzeros
Coefficient statistics:
  Matrix range     [1e+00, 3e+02]
  Objective range  [1e+00, 1e+00]
  Bounds range     [0e+00, 0e+00]
  RHS range        [1e+00, 3e+02]
Presolve removed 22 rows and 11 columns
Presolve time: 0.00s
Presolve: All rows and columns removed
Iteration    Objective       Primal Inf.    Dual Inf.      Time
       0    0.0000000e+00   0.000000e+00   0.000000e+00      0s

Solved in 0 iterations and 0.00 seconds
Optimal objective  0.000000000e+00

Wrote result file 'max.sol'


Gurobi 7.5.1 (linux64) logging started Fri Oct 20 13:07:31 2017

Academic license - for non-commercial use only
Set parameter LogToConsole to value 0

Gurobi Optimizer version 7.5.1 build v7.5.1rc0 (linux64)
Copyright (c) 2017, Gurobi Optimization, Inc.

Read LP format model from file problem.lp
Reading time = 0.00 seconds
: 22 rows, 11 columns, 48 nonzeros
Optimize a model with 22 rows, 11 columns and 48 nonzeros
Coefficient statistics:
  Matrix range     [1e+00, 3e+02]
  Objective range  [1e+00, 1e+00]
  Bounds range     [0e+00, 0e+00]
  RHS range        [1e+00, 3e+02]
Presolve removed 22 rows and 11 columns
Presolve time: 0.00s
Presolve: All rows and columns removed
Iteration    Objective       Primal Inf.    Dual Inf.      Time
       0    0.0000000e+00   0.000000e+00   0.000000e+00      0s

Solved in 0 iterations and 0.00 seconds
Optimal objective  0.000000000e+00

Wrote result file 'max.sol'


Gurobi 7.5.1 (linux64) logging started Fri Oct 20 13:07:31 2017

Academic license - for non-commercial use only
Set parameter LogToConsole to value 0

Gurobi Optimizer version 7.5.1 build v7.5.1rc0 (linux64)
Copyright (c) 2017, Gurobi Optimization, Inc.

Read LP format model from file problem.lp
Reading time = 0.00 seconds
: 22 rows, 11 columns, 48 nonzeros
Optimize a model with 22 rows, 11 columns and 48 nonzeros
Coefficient statistics:
  Matrix range     [1e+00, 3e+02]
  Objective range  [1e+00, 1e+00]
  Bounds range     [0e+00, 0e+00]
  RHS range        [1e+00, 3e+02]
Presolve removed 22 rows and 11 columns
Presolve time: 0.00s
Presolve: All rows and columns removed
Iteration    Objective       Primal Inf.    Dual Inf.      Time
       0    0.0000000e+00   0.000000e+00   0.000000e+00      0s

Solved in 0 iterations and 0.00 seconds
Optimal objective  0.000000000e+00

Wrote result file 'max.sol'


Gurobi 7.5.1 (linux64) logging started Fri Oct 20 13:07:31 2017

Academic license - for non-commercial use only
Set parameter LogToConsole to value 0

Gurobi Optimizer version 7.5.1 build v7.5.1rc0 (linux64)
Copyright (c) 2017, Gurobi Optimization, Inc.

Read LP format model from file problem.lp
Reading time = 0.00 seconds
: 22 rows, 11 columns, 48 nonzeros
Optimize a model with 22 rows, 11 columns and 48 nonzeros
Coefficient statistics:
  Matrix range     [1e+00, 3e+02]
  Objective range  [1e+00, 1e+00]
  Bounds range     [0e+00, 0e+00]
  RHS range        [1e+00, 3e+02]
Presolve removed 22 rows and 11 columns
Presolve time: 0.00s
Presolve: All rows and columns removed
Iteration    Objective       Primal Inf.    Dual Inf.      Time
       0    0.0000000e+00   0.000000e+00   0.000000e+00      0s

Solved in 0 iterations and 0.00 seconds
Optimal objective  0.000000000e+00

Wrote result file 'max.sol'


Gurobi 7.5.1 (linux64) logging started Fri Oct 20 13:07:31 2017

Academic license - for non-commercial use only
Set parameter LogToConsole to value 0

Gurobi Optimizer version 7.5.1 build v7.5.1rc0 (linux64)
Copyright (c) 2017, Gurobi Optimization, Inc.

Read LP format model from file problem.lp
Reading time = 0.00 seconds
: 22 rows, 11 columns, 48 nonzeros
Optimize a model with 22 rows, 11 columns and 48 nonzeros
Coefficient statistics:
  Matrix range     [1e+00, 3e+02]
  Objective range  [1e+00, 1e+00]
  Bounds range     [0e+00, 0e+00]
  RHS range        [1e+00, 3e+02]
Presolve removed 22 rows and 11 columns
Presolve time: 0.00s
Presolve: All rows and columns removed
Iteration    Objective       Primal Inf.    Dual Inf.      Time
       0    0.0000000e+00   0.000000e+00   0.000000e+00      0s

Solved in 0 iterations and 0.00 seconds
Optimal objective  0.000000000e+00

Wrote result file 'max.sol'


Gurobi 7.5.1 (linux64) logging started Fri Oct 20 13:07:31 2017

Academic license - for non-commercial use only
Set parameter LogToConsole to value 0

Gurobi Optimizer version 7.5.1 build v7.5.1rc0 (linux64)
Copyright (c) 2017, Gurobi Optimization, Inc.

Read LP format model from file problem.lp
Reading time = 0.00 seconds
: 22 rows, 11 columns, 48 nonzeros
Optimize a model with 22 rows, 11 columns and 48 nonzeros
Coefficient statistics:
  Matrix range     [1e+00, 3e+02]
  Objective range  [1e+00, 1e+00]
  Bounds range     [0e+00, 0e+00]
  RHS range        [1e+00, 3e+02]
Presolve removed 22 rows and 11 columns
Presolve time: 0.00s
Presolve: All rows and columns removed
Iteration    Objective       Primal Inf.    Dual Inf.      Time
       0    0.0000000e+00   0.000000e+00   0.000000e+00      0s

Solved in 0 iterations and 0.00 seconds
Optimal objective  0.000000000e+00

Wrote result file 'max.sol'


Gurobi 7.5.1 (linux64) logging started Mon Oct 23 11:00:51 2017

Academic license - for non-commercial use only
Set parameter LogToConsole to value 0

Gurobi Optimizer version 7.5.1 build v7.5.1rc0 (linux64)
Copyright (c) 2017, Gurobi Optimization, Inc.

Read LP format model from file problem.lp
Reading time = 0.00 seconds
: 22 rows, 11 columns, 48 nonzeros
Optimize a model with 22 rows, 11 columns and 48 nonzeros
Coefficient statistics:
  Matrix range     [1e+00, 3e+03]
  Objective range  [1e+00, 1e+00]
  Bounds range     [0e+00, 0e+00]
  RHS range        [1e+00, 3e+03]
Presolve removed 22 rows and 11 columns
Presolve time: 0.00s
Presolve: All rows and columns removed
Iteration    Objective       Primal Inf.    Dual Inf.      Time
       0    0.0000000e+00   0.000000e+00   0.000000e+00      0s

Solved in 0 iterations and 0.00 seconds
Optimal objective  0.000000000e+00

Wrote result file 'max.sol'


Gurobi 7.5.1 (linux64) logging started Mon Oct 23 11:00:51 2017

Academic license - for non-commercial use only
Set parameter LogToConsole to value 0

Gurobi Optimizer version 7.5.1 build v7.5.1rc0 (linux64)
Copyright (c) 2017, Gurobi Optimization, Inc.

Read LP format model from file problem.lp
Reading time = 0.00 seconds
: 22 rows, 11 columns, 48 nonzeros
Optimize a model with 22 rows, 11 columns and 48 nonzeros
Coefficient statistics:
  Matrix range     [1e+00, 3e+03]
  Objective range  [1e+00, 1e+00]
  Bounds range     [0e+00, 0e+00]
  RHS range        [1e+00, 3e+03]
Presolve removed 22 rows and 11 columns
Presolve time: 0.00s
Presolve: All rows and columns removed
Iteration    Objective       Primal Inf.    Dual Inf.      Time
       0    0.0000000e+00   0.000000e+00   0.000000e+00      0s

Solved in 0 iterations and 0.00 seconds
Optimal objective  0.000000000e+00

Wrote result file 'max.sol'


Gurobi 7.5.1 (linux64) logging started Mon Oct 23 11:00:51 2017

Academic license - for non-commercial use only
Set parameter LogToConsole to value 0

Gurobi Optimizer version 7.5.1 build v7.5.1rc0 (linux64)
Copyright (c) 2017, Gurobi Optimization, Inc.

Read LP format model from file problem.lp
Reading time = 0.00 seconds
: 22 rows, 11 columns, 48 nonzeros
Optimize a model with 22 rows, 11 columns and 48 nonzeros
Coefficient statistics:
  Matrix range     [1e+00, 3e+03]
  Objective range  [1e+00, 1e+00]
  Bounds range     [0e+00, 0e+00]
  RHS range        [1e+00, 3e+03]
Presolve removed 22 rows and 11 columns
Presolve time: 0.00s
Presolve: All rows and columns removed
Iteration    Objective       Primal Inf.    Dual Inf.      Time
       0    0.0000000e+00   0.000000e+00   0.000000e+00      0s

Solved in 0 iterations and 0.00 seconds
Optimal objective  0.000000000e+00

Wrote result file 'max.sol'


Gurobi 7.5.1 (linux64) logging started Mon Oct 23 11:00:51 2017

Academic license - for non-commercial use only
Set parameter LogToConsole to value 0

Gurobi Optimizer version 7.5.1 build v7.5.1rc0 (linux64)
Copyright (c) 2017, Gurobi Optimization, Inc.

Read LP format model from file problem.lp
Reading time = 0.00 seconds
: 22 rows, 11 columns, 48 nonzeros
Optimize a model with 22 rows, 11 columns and 48 nonzeros
Coefficient statistics:
  Matrix range     [1e+00, 3e+03]
  Objective range  [1e+00, 1e+00]
  Bounds range     [0e+00, 0e+00]
  RHS range        [1e+00, 3e+03]
Presolve removed 22 rows and 11 columns
Presolve time: 0.00s
Presolve: All rows and columns removed
Iteration    Objective       Primal Inf.    Dual Inf.      Time
       0    0.0000000e+00   0.000000e+00   0.000000e+00      0s

Solved in 0 iterations and 0.00 seconds
Optimal objective  0.000000000e+00

Wrote result file 'max.sol'


Gurobi 7.5.1 (linux64) logging started Mon Oct 23 11:00:51 2017

Academic license - for non-commercial use only
Set parameter LogToConsole to value 0

Gurobi Optimizer version 7.5.1 build v7.5.1rc0 (linux64)
Copyright (c) 2017, Gurobi Optimization, Inc.

Read LP format model from file problem.lp
Reading time = 0.00 seconds
: 22 rows, 11 columns, 48 nonzeros
Optimize a model with 22 rows, 11 columns and 48 nonzeros
Coefficient statistics:
  Matrix range     [1e+00, 3e+03]
  Objective range  [1e+00, 1e+00]
  Bounds range     [0e+00, 0e+00]
  RHS range        [1e+00, 3e+03]
Presolve removed 22 rows and 11 columns
Presolve time: 0.00s
Presolve: All rows and columns removed
Iteration    Objective       Primal Inf.    Dual Inf.      Time
       0    0.0000000e+00   0.000000e+00   0.000000e+00      0s

Solved in 0 iterations and 0.00 seconds
Optimal objective  0.000000000e+00

Wrote result file 'max.sol'


Gurobi 7.5.1 (linux64) logging started Mon Oct 23 11:00:51 2017

Academic license - for non-commercial use only
Set parameter LogToConsole to value 0

Gurobi Optimizer version 7.5.1 build v7.5.1rc0 (linux64)
Copyright (c) 2017, Gurobi Optimization, Inc.

Read LP format model from file problem.lp
Reading time = 0.00 seconds
: 22 rows, 11 columns, 48 nonzeros
Optimize a model with 22 rows, 11 columns and 48 nonzeros
Coefficient statistics:
  Matrix range     [1e+00, 3e+03]
  Objective range  [1e+00, 1e+00]
  Bounds range     [0e+00, 0e+00]
  RHS range        [1e+00, 3e+03]
Presolve removed 22 rows and 11 columns
Presolve time: 0.00s
Presolve: All rows and columns removed
Iteration    Objective       Primal Inf.    Dual Inf.      Time
       0    0.0000000e+00   0.000000e+00   0.000000e+00      0s

Solved in 0 iterations and 0.00 seconds
Optimal objective  0.000000000e+00

Wrote result file 'max.sol'


Gurobi 7.5.1 (linux64) logging started Mon Oct 23 11:00:51 2017

Academic license - for non-commercial use only
Set parameter LogToConsole to value 0

Gurobi Optimizer version 7.5.1 build v7.5.1rc0 (linux64)
Copyright (c) 2017, Gurobi Optimization, Inc.

Read LP format model from file problem.lp
Reading time = 0.00 seconds
: 22 rows, 11 columns, 48 nonzeros
Optimize a model with 22 rows, 11 columns and 48 nonzeros
Coefficient statistics:
  Matrix range     [1e+00, 3e+03]
  Objective range  [1e+00, 1e+00]
  Bounds range     [0e+00, 0e+00]
  RHS range        [1e+00, 3e+03]
Presolve removed 22 rows and 11 columns
Presolve time: 0.00s
Presolve: All rows and columns removed
Iteration    Objective       Primal Inf.    Dual Inf.      Time
       0    0.0000000e+00   0.000000e+00   0.000000e+00      0s

Solved in 0 iterations and 0.00 seconds
Optimal objective  0.000000000e+00

Wrote result file 'max.sol'


Gurobi 7.5.1 (linux64) logging started Mon Oct 23 11:00:51 2017

Academic license - for non-commercial use only
Set parameter LogToConsole to value 0

Gurobi Optimizer version 7.5.1 build v7.5.1rc0 (linux64)
Copyright (c) 2017, Gurobi Optimization, Inc.

Read LP format model from file problem.lp
Reading time = 0.00 seconds
: 22 rows, 11 columns, 48 nonzeros
Optimize a model with 22 rows, 11 columns and 48 nonzeros
Coefficient statistics:
  Matrix range     [1e+00, 3e+03]
  Objective range  [1e+00, 1e+00]
  Bounds range     [0e+00, 0e+00]
  RHS range        [1e+00, 3e+03]
Presolve removed 22 rows and 11 columns
Presolve time: 0.00s
Presolve: All rows and columns removed
Iteration    Objective       Primal Inf.    Dual Inf.      Time
       0    0.0000000e+00   0.000000e+00   0.000000e+00      0s

Solved in 0 iterations and 0.00 seconds
Optimal objective  0.000000000e+00

Wrote result file 'max.sol'


Gurobi 7.5.1 (linux64) logging started Mon Oct 23 11:00:51 2017

Academic license - for non-commercial use only
Set parameter LogToConsole to value 0

Gurobi Optimizer version 7.5.1 build v7.5.1rc0 (linux64)
Copyright (c) 2017, Gurobi Optimization, Inc.

Read LP format model from file problem.lp
Reading time = 0.00 seconds
: 23 rows, 11 columns, 48 nonzeros
Optimize a model with 23 rows, 11 columns and 48 nonzeros
Coefficient statistics:
  Matrix range     [1e+00, 3e+03]
  Objective range  [1e+00, 1e+00]
  Bounds range     [0e+00, 0e+00]
  RHS range        [1e+00, 3e+03]
Presolve removed 23 rows and 11 columns
Presolve time: 0.00s
Presolve: All rows and columns removed
Iteration    Objective       Primal Inf.    Dual Inf.      Time
       0    0.0000000e+00   0.000000e+00   0.000000e+00      0s

Solved in 0 iterations and 0.00 seconds
Optimal objective  0.000000000e+00

Wrote result file 'max.sol'


Gurobi 7.5.1 (linux64) logging started Mon Oct 23 11:00:51 2017

Academic license - for non-commercial use only
Set parameter LogToConsole to value 0

Gurobi Optimizer version 7.5.1 build v7.5.1rc0 (linux64)
Copyright (c) 2017, Gurobi Optimization, Inc.

Read LP format model from file problem.lp
Reading time = 0.00 seconds
: 23 rows, 11 columns, 48 nonzeros
Optimize a model with 23 rows, 11 columns and 48 nonzeros
Coefficient statistics:
  Matrix range     [1e+00, 3e+03]
  Objective range  [1e+00, 1e+00]
  Bounds range     [0e+00, 0e+00]
  RHS range        [1e+00, 3e+03]
Presolve removed 23 rows and 11 columns
Presolve time: 0.00s
Presolve: All rows and columns removed
Iteration    Objective       Primal Inf.    Dual Inf.      Time
       0    0.0000000e+00   0.000000e+00   0.000000e+00      0s

Solved in 0 iterations and 0.00 seconds
Optimal objective  0.000000000e+00

Wrote result file 'max.sol'


Gurobi 7.5.1 (linux64) logging started Mon Oct 23 11:00:51 2017

Academic license - for non-commercial use only
Set parameter LogToConsole to value 0

Gurobi Optimizer version 7.5.1 build v7.5.1rc0 (linux64)
Copyright (c) 2017, Gurobi Optimization, Inc.

Read LP format model from file problem.lp
Reading time = 0.00 seconds
: 23 rows, 11 columns, 48 nonzeros
Optimize a model with 23 rows, 11 columns and 48 nonzeros
Coefficient statistics:
  Matrix range     [1e+00, 3e+03]
  Objective range  [1e+00, 1e+00]
  Bounds range     [0e+00, 0e+00]
  RHS range        [1e+00, 3e+03]
Presolve removed 23 rows and 11 columns
Presolve time: 0.00s
Presolve: All rows and columns removed
Iteration    Objective       Primal Inf.    Dual Inf.      Time
       0    0.0000000e+00   0.000000e+00   0.000000e+00      0s

Solved in 0 iterations and 0.00 seconds
Optimal objective  0.000000000e+00

Wrote result file 'max.sol'


Gurobi 7.5.1 (linux64) logging started Mon Oct 23 11:00:51 2017

Academic license - for non-commercial use only
Set parameter LogToConsole to value 0

Gurobi Optimizer version 7.5.1 build v7.5.1rc0 (linux64)
Copyright (c) 2017, Gurobi Optimization, Inc.

Read LP format model from file problem.lp
Reading time = 0.00 seconds
: 23 rows, 11 columns, 48 nonzeros
Optimize a model with 23 rows, 11 columns and 48 nonzeros
Coefficient statistics:
  Matrix range     [1e+00, 3e+03]
  Objective range  [1e+00, 1e+00]
  Bounds range     [0e+00, 0e+00]
  RHS range        [1e+00, 3e+03]
Presolve removed 23 rows and 11 columns
Presolve time: 0.00s
Presolve: All rows and columns removed
Iteration    Objective       Primal Inf.    Dual Inf.      Time
       0    0.0000000e+00   0.000000e+00   0.000000e+00      0s

Solved in 0 iterations and 0.00 seconds
Optimal objective  0.000000000e+00

Wrote result file 'max.sol'


Gurobi 7.5.1 (linux64) logging started Mon Oct 23 11:00:51 2017

Academic license - for non-commercial use only
Set parameter LogToConsole to value 0

Gurobi Optimizer version 7.5.1 build v7.5.1rc0 (linux64)
Copyright (c) 2017, Gurobi Optimization, Inc.

Read LP format model from file problem.lp
Reading time = 0.00 seconds
: 23 rows, 11 columns, 48 nonzeros
Optimize a model with 23 rows, 11 columns and 48 nonzeros
Coefficient statistics:
  Matrix range     [1e+00, 3e+03]
  Objective range  [1e+00, 1e+00]
  Bounds range     [0e+00, 0e+00]
  RHS range        [1e+00, 3e+03]
Presolve removed 23 rows and 11 columns
Presolve time: 0.00s
Presolve: All rows and columns removed
Iteration    Objective       Primal Inf.    Dual Inf.      Time
       0    0.0000000e+00   0.000000e+00   0.000000e+00      0s

Solved in 0 iterations and 0.00 seconds
Optimal objective  0.000000000e+00

Wrote result file 'max.sol'


Gurobi 7.5.1 (linux64) logging started Mon Oct 23 11:00:51 2017

Academic license - for non-commercial use only
Set parameter LogToConsole to value 0

Gurobi Optimizer version 7.5.1 build v7.5.1rc0 (linux64)
Copyright (c) 2017, Gurobi Optimization, Inc.

Read LP format model from file problem.lp
Reading time = 0.00 seconds
: 23 rows, 11 columns, 48 nonzeros
Optimize a model with 23 rows, 11 columns and 48 nonzeros
Coefficient statistics:
  Matrix range     [1e+00, 3e+03]
  Objective range  [1e+00, 1e+00]
  Bounds range     [0e+00, 0e+00]
  RHS range        [1e+00, 3e+03]
Presolve removed 23 rows and 11 columns
Presolve time: 0.00s
Presolve: All rows and columns removed
Iteration    Objective       Primal Inf.    Dual Inf.      Time
       0    0.0000000e+00   0.000000e+00   0.000000e+00      0s

Solved in 0 iterations and 0.00 seconds
Optimal objective  0.000000000e+00

Wrote result file 'max.sol'


Gurobi 7.5.1 (linux64) logging started Mon Oct 23 11:00:51 2017

Academic license - for non-commercial use only
Set parameter LogToConsole to value 0

Gurobi Optimizer version 7.5.1 build v7.5.1rc0 (linux64)
Copyright (c) 2017, Gurobi Optimization, Inc.

Read LP format model from file problem.lp
Reading time = 0.00 seconds
: 23 rows, 11 columns, 48 nonzeros
Optimize a model with 23 rows, 11 columns and 48 nonzeros
Coefficient statistics:
  Matrix range     [1e+00, 3e+03]
  Objective range  [1e+00, 1e+00]
  Bounds range     [0e+00, 0e+00]
  RHS range        [1e+00, 3e+03]
Presolve removed 23 rows and 11 columns
Presolve time: 0.00s
Presolve: All rows and columns removed
Iteration    Objective       Primal Inf.    Dual Inf.      Time
       0    0.0000000e+00   0.000000e+00   0.000000e+00      0s

Solved in 0 iterations and 0.00 seconds
Optimal objective  0.000000000e+00

Wrote result file 'max.sol'


Gurobi 7.5.1 (linux64) logging started Mon Oct 23 11:00:51 2017

Academic license - for non-commercial use only
Set parameter LogToConsole to value 0

Gurobi Optimizer version 7.5.1 build v7.5.1rc0 (linux64)
Copyright (c) 2017, Gurobi Optimization, Inc.

Read LP format model from file problem.lp
Reading time = 0.00 seconds
: 23 rows, 11 columns, 48 nonzeros
Optimize a model with 23 rows, 11 columns and 48 nonzeros
Coefficient statistics:
  Matrix range     [1e+00, 3e+03]
  Objective range  [1e+00, 1e+00]
  Bounds range     [0e+00, 0e+00]
  RHS range        [1e+00, 3e+03]
Presolve removed 23 rows and 11 columns
Presolve time: 0.00s
Presolve: All rows and columns removed
Iteration    Objective       Primal Inf.    Dual Inf.      Time
       0    0.0000000e+00   0.000000e+00   0.000000e+00      0s

Solved in 0 iterations and 0.00 seconds
Optimal objective  0.000000000e+00

Wrote result file 'max.sol'

